1 1 2 0
1 -1 -3 0
1 -4 3 0
1 5 -6 0
1 -5 7 0
1 -5 2 0
1 -8 -9 0
1 -8 -6 0
1 8 10 0
1 8 -7 0
1 -8 5 0
1 -8 -3 0
1 10 11 0
1 10 4 0
1 10 1 0
1 -3 -12 0
1 -3 10 0
1 3 13 0
1 3 5 0
1 6 -14 0
1 6 -15 0
1 6 -16 0
1 6 5 0
1 -6 1 0
1 6 2 0
1 2 -12 0
1 -2 17 0
1 -2 4 0
1 -2 6 0
1 2 18 0
1 2 -5 0
1 -2 -19 0
1 -20 21 0
1 -20 -11 0
1 20 -10 0
1 -20 -7 0
1 20 -22 0
1 -20 -3 0
1 -11 -21 0
1 -11 9 0
1 11 10 0
1 -11 -22 0
1 11 -20 0
1 11 3 0
1 13 -23 0
1 13 24 0
1 -13 25 0
1 -23 -21 0
1 -23 -9 0
1 23 26 0
1 -23 27 0
1 -23 3 0
1 -22 -28 0
1 -22 29 0
1 22 -23 0
1 -22 11 0
1 -22 -30 0
1 22 31 0
1 22 32 0
1 -22 13 0
1 22 20 0
1 -22 -5 0
1 -22 -33 0
1 9 29 0
1 -9 8 0
1 -9 -32 0
1 9 22 0
1 9 20 0
1 -9 5 0
1 -9 33 0
1 7 34 0
1 7 -23 0
1 -7 8 0
1 7 -13 0
1 -21 34 0
1 21 -23 0
1 21 8 0
1 21 35 0
1 21 20 0
1 21 5 0
1 -21 -33 0
1 32 -9 0
1 -32 -26 0
1 -32 -36 0
1 32 18 0
1 32 -27 0
1 32 -25 0
1 -29 9 0
1 29 -26 0
1 -29 36 0
1 29 27 0
1 -29 25 0
1 -31 28 0
1 -31 26 0
1 -31 -22 0
1 -28 -9 0
1 -28 26 0
1 -28 36 0
1 28 31 0
1 28 -27 0
1 -28 25 0
1 25 28 0
1 25 -13 0
1 -36 29 0
1 36 -23 0
1 -27 -29 0
1 -27 -37 0
1 27 -33 0
1 26 -29 0
1 -26 23 0
1 26 -38 0
1 26 -32 0
1 -26 13 0
1 -26 27 0
1 -26 37 0
1 26 33 0
1 16 -39 0
1 -16 6 0
1 -16 40 0
1 16 -20 0
1 -17 11 0
1 -17 -6 0
1 -17 -41 0
1 -17 -40 0
1 24 -14 0
1 24 42 0
1 24 43 0
1 -24 13 0
1 24 40 0
1 24 -44 0
1 -24 -45 0
1 -14 -46 0
1 14 43 0
1 14 -6 0
1 -14 -24 0
1 -14 45 0
1 -14 -2 0
1 42 -40 0
1 42 34 0
1 42 12 0
1 -42 14 0
1 -42 35 0
1 42 -24 0
1 42 16 0
1 40 12 0
1 40 14 0
1 40 -42 0
1 -40 18 0
1 -40 -24 0
1 39 14 0
1 -39 24 0
1 -41 14 0
1 -41 39 0
1 41 -17 0
1 41 -24 0
1 18 21 0
1 18 12 0
1 -18 -46 0
1 18 43 0
1 -18 -6 0
1 -18 -10 0
1 18 7 0
1 -18 -32 0
1 18 -44 0
1 12 29 0
1 -12 42 0
1 12 6 0
1 12 -7 0
1 12 18 0
1 12 -40 0
1 -12 -44 0
1 12 -45 0
1 -12 -2 0
1 -12 3 0
1 -35 -21 0
1 35 34 0
1 -35 -42 0
1 35 43 0
1 -35 15 0
1 35 -44 0
1 -35 -45 0
1 34 21 0
1 34 46 0
1 -34 -43 0
1 34 -15 0
1 34 -40 0
1 34 -44 0
1 -34 -45 0
1 43 30 0
1 43 -35 0
1 43 24 0
1 -43 -45 0
1 -43 -33 0
1 45 -14 0
1 45 43 0
1 -45 -30 0
1 45 18 0
1 45 -24 0
1 -45 37 0
1 46 -18 0
1 46 -24 0
1 -46 -44 0
1 -44 -34 0
1 -44 -18 0
1 30 -43 0
1 -30 -15 0
1 -30 47 0
1 30 -27 0
1 -30 45 0
1 33 21 0
1 -33 48 0
1 -33 9 0
1 33 30 0
1 -33 47 0
1 33 -19 0
1 -38 26 0
1 38 -47 0
1 38 -27 0
1 -38 19 0
1 37 -48 0
1 37 -43 0
1 37 -38 0
1 -37 47 0
1 -37 -27 0
1 37 -19 0
1 -47 -38 0
1 47 -30 0
1 -47 -10 0
1 47 35 0
1 48 -34 0
1 48 -38 0
1 48 47 0
1 -48 -35 0
1 48 33 0
1 15 -38 0
1 -19 15 0
1 19 2 0
